maximize cost: 39 e_3_3_5_66_0_39 + 39 e_4_4_6_66_1_39 + 9 e_5_5_7_80_0_9 + 12 e_6_6_8_81_1_12
 + 36 e_7_7_9_85_0_36 + 8 e_8_8_10_187_1_8 + 1 e_9_9_11_106_0_1 + 1 e_10_10_12_196_1_1 + 25 e_15_15_17_22_0_25
 + 24 e_16_16_18_44_0_24 + 4 e_17_17_19_36_0_4 + 4 e_18_18_20_58_0_4 + 32 e_23_23_25_112_0_32 + 37 e_24_24_26_202_1_37
 + 4 e_25_25_27_127_0_4 + 11 e_26_26_28_218_1_11 + 1 e_28_28_30_226_1_1 + 10 e_32_31_33_302_0_10 + 12 e_34_33_35_313_0_12
 + 68 e_35_35_36_391_0_68 + 1 e_36_36_37_427_0_1 + 25 e_39_39_40_133_0_25 + 4 e_40_40_41_148_0_4 + 10 e_43_43_44_302_1_10
 + 12 e_44_44_45_312_1_12 + 136 e_45_45_46_317_1_136 + 1 e_46_46_47_387_1_1 + 25 e_49_49_50_154_0_25 + 4 e_50_50_51_169_0_4
 + 10 e_53_53_54_302_2_10 + 12 e_54_54_55_312_2_12 + 136 e_55_55_56_317_2_136 + 1 e_56_56_57_387_2_1 + 17 e_59_59_60_175_0_17
 + 1 e_60_60_61_183_0_1 + 10 e_61_61_62_218_0_10 + 1 e_62_62_63_226_0_1
subject to
e_0_0_0_0_0_0 = 0
e_1_1_3_65_0_0 + e_2_2_4_65_1_0 = 1
e_29_30_18446744073709551615_0_0_0 + e_63_63_18446744073709551615_0_0_0 = 1
e_1_1_3_65_0_0 - e_3_3_5_66_0_39 = 0
e_2_2_4_65_1_0 - e_4_4_6_66_1_39 = 0
e_3_3_5_66_0_39 - e_5_5_7_80_0_9 = 0
e_4_4_6_66_1_39 - e_6_6_8_81_1_12 = 0
e_5_5_7_80_0_9 - e_7_7_9_85_0_36 = 0
e_6_6_8_81_1_12 - e_8_8_10_187_1_8 = 0
e_7_7_9_85_0_36 - e_9_9_11_106_0_1 = 0
e_8_8_10_187_1_8 - e_10_10_12_196_1_1 = 0
e_9_9_11_106_0_1 - e_11_11_13_107_0_0 = 0
e_10_10_12_196_1_1 - e_12_12_14_197_1_0 = 0
e_11_11_13_107_0_0 - e_13_13_15_21_0_0 = 0
e_12_12_14_197_1_0 - e_14_14_16_43_0_0 = 0
e_13_13_15_21_0_0 - e_15_15_17_22_0_25 = 0
e_14_14_16_43_0_0 - e_16_16_18_44_0_24 = 0
e_15_15_17_22_0_25 - e_17_17_19_36_0_4 = 0
e_16_16_18_44_0_24 - e_18_18_20_58_0_4 = 0
e_17_17_19_36_0_4 - e_19_19_21_430_0_0 = 0
e_18_18_20_58_0_4 - e_20_20_22_434_1_0 = 0
e_19_19_21_430_0_0 - e_21_21_23_108_0_0 = 0
e_20_20_22_434_1_0 - e_22_22_24_198_1_0 = 0
e_21_21_23_108_0_0 - e_23_23_25_112_0_32 = 0
e_22_22_24_198_1_0 - e_24_24_26_202_1_37 = 0
e_23_23_25_112_0_32 - e_25_25_27_127_0_4 = 0
e_24_24_26_202_1_37 - e_26_26_28_218_1_11 = 0
e_25_25_27_127_0_4 - e_27_27_29_128_0_0 = 0
e_26_26_28_218_1_11 - e_28_28_30_226_1_1 = 0
e_27_27_29_128_0_0 - e_30_29_31_301_0_0 = 0
e_28_28_30_226_1_1 - e_29_30_18446744073709551615_0_0_0 = 0
e_30_29_31_301_0_0 - e_32_31_33_302_0_10 = 0
e_32_31_33_302_0_10 - e_34_33_35_313_0_12 = 0
e_34_33_35_313_0_12 - e_35_35_36_391_0_68 = 0
e_35_35_36_391_0_68 - e_36_36_37_427_0_1 = 0
e_36_36_37_427_0_1 - e_37_37_38_431_0_0 = 0
e_37_37_38_431_0_0 - e_38_38_39_129_0_0 = 0
e_38_38_39_129_0_0 - e_39_39_40_133_0_25 = 0
e_39_39_40_133_0_25 - e_40_40_41_148_0_4 = 0
e_40_40_41_148_0_4 - e_41_41_42_149_0_0 = 0
e_41_41_42_149_0_0 - e_42_42_43_301_1_0 = 0
e_42_42_43_301_1_0 - e_43_43_44_302_1_10 = 0
e_43_43_44_302_1_10 - e_44_44_45_312_1_12 = 0
e_44_44_45_312_1_12 - e_45_45_46_317_1_136 = 0
e_45_45_46_317_1_136 - e_46_46_47_387_1_1 = 0
e_46_46_47_387_1_1 - e_47_47_48_432_0_0 = 0
e_47_47_48_432_0_0 - e_48_48_49_150_0_0 = 0
e_48_48_49_150_0_0 - e_49_49_50_154_0_25 = 0
e_49_49_50_154_0_25 - e_50_50_51_169_0_4 = 0
e_50_50_51_169_0_4 - e_51_51_52_170_0_0 = 0
e_51_51_52_170_0_0 - e_52_52_53_301_2_0 = 0
e_52_52_53_301_2_0 - e_53_53_54_302_2_10 = 0
e_53_53_54_302_2_10 - e_54_54_55_312_2_12 = 0
e_54_54_55_312_2_12 - e_55_55_56_317_2_136 = 0
e_55_55_56_317_2_136 - e_56_56_57_387_2_1 = 0
e_56_56_57_387_2_1 - e_57_57_58_433_0_0 = 0
e_57_57_58_433_0_0 - e_58_58_59_171_0_0 = 0
e_58_58_59_171_0_0 - e_59_59_60_175_0_17 = 0
e_59_59_60_175_0_17 - e_60_60_61_183_0_1 = 0
e_60_60_61_183_0_1 - e_61_61_62_218_0_10 = 0
e_61_61_62_218_0_10 - e_62_62_63_226_0_1 = 0
e_62_62_63_226_0_1 - e_63_63_18446744073709551615_0_0_0 = 0
+1 e_19_19_21_430_0_0 -1 e_11_11_13_107_0_0 = 0
+1 e_37_37_38_431_0_0 -1 e_27_27_29_128_0_0 = 0
+1 e_47_47_48_432_0_0 -1 e_41_41_42_149_0_0 = 0
+1 e_57_57_58_433_0_0 -1 e_51_51_52_170_0_0 = 0
+1 e_20_20_22_434_1_0 -1 e_12_12_14_197_1_0 = 0
general
e_0_0_0_0_0_0
e_1_1_3_65_0_0
e_2_2_4_65_1_0
e_3_3_5_66_0_39
e_4_4_6_66_1_39
e_5_5_7_80_0_9
e_6_6_8_81_1_12
e_7_7_9_85_0_36
e_8_8_10_187_1_8
e_9_9_11_106_0_1
e_10_10_12_196_1_1
e_11_11_13_107_0_0
e_12_12_14_197_1_0
e_13_13_15_21_0_0
e_14_14_16_43_0_0
e_15_15_17_22_0_25
e_16_16_18_44_0_24
e_17_17_19_36_0_4
e_18_18_20_58_0_4
e_19_19_21_430_0_0
e_20_20_22_434_1_0
e_21_21_23_108_0_0
e_22_22_24_198_1_0
e_23_23_25_112_0_32
e_24_24_26_202_1_37
e_25_25_27_127_0_4
e_26_26_28_218_1_11
e_27_27_29_128_0_0
e_28_28_30_226_1_1
e_30_29_31_301_0_0
e_29_30_18446744073709551615_0_0_0
e_32_31_33_302_0_10
e_34_33_35_313_0_12
e_35_35_36_391_0_68
e_36_36_37_427_0_1
e_37_37_38_431_0_0
e_38_38_39_129_0_0
e_39_39_40_133_0_25
e_40_40_41_148_0_4
e_41_41_42_149_0_0
e_42_42_43_301_1_0
e_43_43_44_302_1_10
e_44_44_45_312_1_12
e_45_45_46_317_1_136
e_46_46_47_387_1_1
e_47_47_48_432_0_0
e_48_48_49_150_0_0
e_49_49_50_154_0_25
e_50_50_51_169_0_4
e_51_51_52_170_0_0
e_52_52_53_301_2_0
e_53_53_54_302_2_10
e_54_54_55_312_2_12
e_55_55_56_317_2_136
e_56_56_57_387_2_1
e_57_57_58_433_0_0
e_58_58_59_171_0_0
e_59_59_60_175_0_17
e_60_60_61_183_0_1
e_61_61_62_218_0_10
e_62_62_63_226_0_1
e_63_63_18446744073709551615_0_0_0
end
